
     Program PWSCF v.7.5 starts on  9Oct2026 at 12:44:50 

     This program is part of the open-source Quantum ESPRESSO suite
     for quantum simulation of materials; please cite
         "P. Giannozzi et al., J. Phys.:Condens. Matter 21 395502 (2009);
         "P. Giannozzi et al., J. Phys.:Condens. Matter 29 465901 (2017);
         "P. Giannozzi et al., J. Chem. Phys. 152 154105 (2020);
          URL http://www.quantum-espresso.org", 
     in publications or presentations arising from this work. More details at
     http://www.quantum-espresso.org/quote

     Parallel version (MPI), running on     8 processors

     MPI processes distributed on     1 nodes
     6580 MiB available memory on the printing compute node when the environment starts

     Waiting for input...
     Reading input from standard input

     Current dimensions of program PWSCF are:
     Max number of different atomic species (ntypx) = 10
     Max number of k-points (npk) =  40000
     Max angular momentum in pseudopotentials (lmaxx) =  4
     file Si.pbe-n-kjpaw_psl.1.0.0.UPF: wavefunction(s)  3S 3P renormalized

     R & G space division:  proc/nbgrp/npool/nimage =       8
     Subspace diagonalization in iterative solution of the eigenvalue problem:
     a serial algorithm will be used


     Parallelization info
     --------------------
     sticks:   dense  smooth     PW     G-vecs:    dense   smooth      PW
     Min         256     128     37                 7561     2666     433
     Max         257     129     38                 7563     2667     436
     Sum        2053    1027    301                60495    21331    3479

     Using Slab Decomposition



     bravais-lattice index     =            2
     lattice parameter (alat)  =      10.2600  a.u.
     unit-cell volume          =     270.0114 (a.u.)^3
     number of atoms/cell      =            2
     number of atomic types    =            1
     number of electrons       =         8.00
     number of Kohn-Sham states=            8
     kinetic-energy cutoff     =      70.0000  Ry
     charge density cutoff     =     560.0000  Ry
     scf convergence threshold =      1.0E-08
     mixing beta               =       0.7000
     number of iterations used =            8  plain     mixing
     Exchange-correlation= SLA  PW   PBX  PBC
                           (   1   4   3   4   0   0   0)

     celldm(1)=  10.260000  celldm(2)=   0.000000  celldm(3)=   0.000000
     celldm(4)=   0.000000  celldm(5)=   0.000000  celldm(6)=   0.000000

     crystal axes: (cart. coord. in units of alat)
               a(1) = (  -0.500000   0.000000   0.500000 )  
               a(2) = (   0.000000   0.500000   0.500000 )  
               a(3) = (  -0.500000   0.500000   0.000000 )  

     reciprocal axes: (cart. coord. in units 2 pi/alat)
               b(1) = ( -1.000000 -1.000000  1.000000 )  
               b(2) = (  1.000000  1.000000  1.000000 )  
               b(3) = ( -1.000000  1.000000 -1.000000 )  


     PseudoPot. # 1 for Si read from file:
     ../pseudo/Si.pbe-n-kjpaw_psl.1.0.0.UPF
     MD5 check sum: c39c59da582df4a0d9f10159256ea34e
     Pseudo is Projector augmented-wave + core cor, Zval =  4.0
     Generated using &quot;atomic&quot; code by A. Dal Corso  v.6.3
     Shape of augmentation charge: PSQ
     Using radial grid of 1141 points,  6 beta functions with: 
                l(1) =   0
                l(2) =   0
                l(3) =   1
                l(4) =   1
                l(5) =   2
                l(6) =   2
     Q(r) pseudized with 0 coefficients 


     atomic species   valence    mass     pseudopotential
     Si                4.00    28.08550     Si( 1.00)

     48 Sym. Ops., with inversion, found (24 have fractional translation)



   Cartesian axes

     site n.     atom                  positions (alat units)
         1        Si     tau(   1) = (   0.0000000   0.0000000   0.0000000  )
         2        Si     tau(   2) = (  -0.2500000   0.2500000   0.2500000  )

     number of k points=    16  Marzari-Vanderbilt smearing, width (Ry)=  0.2000
                       cart. coord. in units 2pi/alat
        k(    1) = (   0.0000000   0.0000000   0.0000000), wk =   0.0092593
        k(    2) = (  -0.1666667   0.1666667  -0.1666667), wk =   0.0740741
        k(    3) = (  -0.3333333   0.3333333  -0.3333333), wk =   0.0740741
        k(    4) = (   0.5000000  -0.5000000   0.5000000), wk =   0.0370370
        k(    5) = (   0.0000000   0.3333333   0.0000000), wk =   0.0555556
        k(    6) = (  -0.1666667   0.5000000  -0.1666667), wk =   0.2222222
        k(    7) = (   0.6666667  -0.3333333   0.6666667), wk =   0.2222222
        k(    8) = (   0.5000000  -0.1666667   0.5000000), wk =   0.2222222
        k(    9) = (   0.3333333   0.0000000   0.3333333), wk =   0.1111111
        k(   10) = (   0.0000000   0.6666667   0.0000000), wk =   0.0555556
        k(   11) = (   0.8333333  -0.1666667   0.8333333), wk =   0.2222222
        k(   12) = (   0.6666667  -0.0000000   0.6666667), wk =   0.1111111
        k(   13) = (   0.0000000  -1.0000000   0.0000000), wk =   0.0277778
        k(   14) = (   0.6666667  -0.3333333   1.0000000), wk =   0.2222222
        k(   15) = (   0.5000000  -0.1666667   0.8333333), wk =   0.2222222
        k(   16) = (  -0.3333333  -1.0000000   0.0000000), wk =   0.1111111

     Dense  grid:    60495 G-vectors     FFT dimensions: (  60,  60,  60)

     Smooth grid:    21331 G-vectors     FFT dimensions: (  40,  40,  40)

     Estimated max dynamical RAM per process >      29.55 MB

     Estimated total dynamical RAM >     236.40 MB

     Initial potential from superposition of free atoms

     starting charge       7.9989, renormalised to       8.0000
     Starting wfcs are    8 randomized atomic wfcs
     Checking if some PAW data can be deallocated... 

     total cpu time spent up to now is        0.7 secs

     Self-consistent Calculation

     iteration #  1     ecut=    70.00 Ry     beta= 0.70
     Davidson diagonalization with overlap
     ethr =  1.00E-02,  avg # of iterations =  3.7

     Threshold (ethr) on eigenvalues was too large:
     Diagonalizing with lowered threshold

     Davidson diagonalization with overlap
     ethr =  5.00E-04,  avg # of iterations =  3.4

     total cpu time spent up to now is        1.1 secs

     total energy              =     -93.41190978 Ry
     estimated scf accuracy    <       0.04346698 Ry

     iteration #  2     ecut=    70.00 Ry     beta= 0.70
     Davidson diagonalization with overlap
     ethr =  5.43E-04,  avg # of iterations =  1.1

     total cpu time spent up to now is        1.3 secs

     total energy              =     -93.41381698 Ry
     estimated scf accuracy    <       0.00175032 Ry

     iteration #  3     ecut=    70.00 Ry     beta= 0.70
     Davidson diagonalization with overlap
     ethr =  2.19E-05,  avg # of iterations =  4.4

     total cpu time spent up to now is        1.6 secs

     total energy              =     -93.41392535 Ry
     estimated scf accuracy    <       0.00004147 Ry

     iteration #  4     ecut=    70.00 Ry     beta= 0.70
     Davidson diagonalization with overlap
     ethr =  5.18E-07,  avg # of iterations =  2.8

     total cpu time spent up to now is        1.8 secs

     total energy              =     -93.41393273 Ry
     estimated scf accuracy    <       0.00000019 Ry

     iteration #  5     ecut=    70.00 Ry     beta= 0.70
     Davidson diagonalization with overlap
     ethr =  2.34E-09,  avg # of iterations =  4.9

     total cpu time spent up to now is        2.0 secs

     total energy              =     -93.41393301 Ry
     estimated scf accuracy    <       0.00000002 Ry

     iteration #  6     ecut=    70.00 Ry     beta= 0.70
     Davidson diagonalization with overlap
     ethr =  2.35E-10,  avg # of iterations =  2.2

     total cpu time spent up to now is        2.3 secs

     End of self-consistent calculation

          k = 0.0000 0.0000 0.0000 (  2685 PWs)   bands (ev):

    -5.8302   6.1186   6.1186   6.1186   8.7203   8.7203   8.7203   9.4803

          k =-0.1667 0.1667-0.1667 (  2683 PWs)   bands (ev):

    -5.4695   3.7467   5.6732   5.6732   8.4933   9.3638   9.3638  11.5746

          k =-0.3333 0.3333-0.3333 (  2659 PWs)   bands (ev):

    -4.4559   0.7985   5.1256   5.1256   7.9012   9.6673   9.6673  14.0209

          k = 0.5000-0.5000 0.5000 (  2638 PWs)   bands (ev):

    -3.5052  -0.8321   4.9277   4.9277   7.6745   9.5046   9.5046  13.8980

          k = 0.0000 0.3333 0.0000 (  2681 PWs)   bands (ev):

    -5.3467   4.0798   4.9378   4.9378   7.8617  10.4473  10.4897  10.4897

          k =-0.1667 0.5000-0.1667 (  2677 PWs)   bands (ev):

    -4.5327   1.6900   4.1397   4.3867   8.1189  10.2198  10.6726  11.2246

          k = 0.6667-0.3333 0.6667 (  2668 PWs)   bands (ev):

    -3.3451  -0.4725   3.3582   4.3554   8.1976  10.2586  10.7807  12.5737

          k = 0.5000-0.1667 0.5000 (  2672 PWs)   bands (ev):

    -3.7285   0.1246   3.0901   4.8309   8.6046  10.2659  10.3901  13.4369

          k = 0.3333 0.0000 0.3333 (  2659 PWs)   bands (ev):

    -4.8821   2.4073   3.7267   5.5576   9.1884   9.7153   9.9848  11.8144

          k = 0.0000 0.6667 0.0000 (  2670 PWs)   bands (ev):

    -3.9286   1.1094   3.7182   3.7182   6.8854   8.1573  13.4028  13.4028

          k = 0.8333-0.1667 0.8333 (  2663 PWs)   bands (ev):

    -2.7672  -0.4427   2.5121   3.5818   7.2239   8.8730  13.6016  13.6184

          k = 0.6667-0.0000 0.6667 (  2662 PWs)   bands (ev):

    -2.5732  -0.6457   1.7352   4.0218   7.7276  11.9480  12.6313  13.2150

          k = 0.0000-1.0000 0.0000 (  2698 PWs)   bands (ev):

    -1.6921  -1.6921   3.2848   3.2848   6.8716   6.8716  16.2455  16.2456

          k = 0.6667-0.3333 1.0000 (  2666 PWs)   bands (ev):

    -3.5447   0.4788   2.5740   3.8424   9.0044   9.8745  10.3839  13.2059

          k = 0.5000-0.1667 0.8333 (  2666 PWs)   bands (ev):

    -2.5634  -0.7168   2.1343   3.3789   9.5109   9.7081  12.2506  12.6724

          k =-0.3333-1.0000 0.0000 (  2666 PWs)   bands (ev):

    -1.5738  -1.5738   2.4999   2.4999   8.9034   8.9034  12.9131  12.9131

     the Fermi energy is     6.1984 ev

!    total energy              =     -93.41393301 Ry
     total all-electron energy =     -1160.105663 Ry
     estimated scf accuracy    <          5.2E-11 Ry
     smearing contrib. (-TS)   =       0.03319064 Ry
     internal energy E=F+TS    =     -93.44712366 Ry

     The total energy is F=E-TS. E is the sum of the following terms:
     one-electron contribution =       5.77282088 Ry
     hartree contribution      =       1.05063955 Ry
     xc contribution           =     -12.28536983 Ry
     ewald contribution        =     -16.80092957 Ry
     one-center paw contrib.   =     -71.18428469 Ry

     convergence has been achieved in   6 iterations

     Writing all to output data dir ./tmp/silicon_70.save/ :
     XML data file, charge density, pseudopotentials, collected wavefunctions

     init_run     :      0.63s CPU      0.63s WALL (       1 calls)
     electrons    :      1.57s CPU      1.55s WALL (       1 calls)

     Called by init_run:
     wfcinit      :      0.05s CPU      0.05s WALL (       1 calls)
     potinit      :      0.23s CPU      0.23s WALL (       1 calls)
     hinit0       :      0.27s CPU      0.27s WALL (       1 calls)

     Called by electrons:
     c_bands      :      0.71s CPU      0.69s WALL (       7 calls)
     sum_band     :      0.31s CPU      0.31s WALL (       7 calls)
     v_of_rho     :      0.08s CPU      0.08s WALL (       7 calls)
     newd         :      0.19s CPU      0.20s WALL (       7 calls)
     PAW_pot      :      0.36s CPU      0.37s WALL (       7 calls)
     mix_rho      :      0.00s CPU      0.01s WALL (       7 calls)

     Called by c_bands:
     init_us_2    :      0.02s CPU      0.02s WALL (     240 calls)
     cegterg      :      0.67s CPU      0.66s WALL (     112 calls)

     Called by *egterg:
     cdiaghg      :      0.02s CPU      0.02s WALL (     458 calls)
     h_psi        :      0.50s CPU      0.49s WALL (     490 calls)
     s_psi        :      0.05s CPU      0.05s WALL (     490 calls)
     g_psi        :      0.00s CPU      0.00s WALL (     362 calls)

     Called by h_psi:
     h_psi:calbec :      0.07s CPU      0.06s WALL (     490 calls)
     vloc_psi     :      0.38s CPU      0.37s WALL (     490 calls)
                                        0.00s GPU  (     490 calls)
     add_vuspsi   :      0.05s CPU      0.05s WALL (     490 calls)

     General routines
     calbec       :      0.09s CPU      0.08s WALL (     602 calls)
     fft          :      0.27s CPU      0.26s WALL (      90 calls)
     ffts         :      0.16s CPU      0.15s WALL (      14 calls)
     fftw         :      0.41s CPU      0.40s WALL (    6256 calls)
     interpolate  :      0.16s CPU      0.15s WALL (       7 calls)

     Parallel routines

     PWSCF        :      2.29s CPU      2.30s WALL


   This run was terminated on:  12:44:52   9Oct2026            

=------------------------------------------------------------------------------=
   JOB DONE.
=------------------------------------------------------------------------------=
