
     Program PWSCF v.7.5 starts on  9Oct2026 at 12:45:15 

     This program is part of the open-source Quantum ESPRESSO suite
     for quantum simulation of materials; please cite
         "P. Giannozzi et al., J. Phys.:Condens. Matter 21 395502 (2009);
         "P. Giannozzi et al., J. Phys.:Condens. Matter 29 465901 (2017);
         "P. Giannozzi et al., J. Chem. Phys. 152 154105 (2020);
          URL http://www.quantum-espresso.org", 
     in publications or presentations arising from this work. More details at
     http://www.quantum-espresso.org/quote

     Parallel version (MPI), running on     8 processors

     MPI processes distributed on     1 nodes
     6563 MiB available memory on the printing compute node when the environment starts

     Waiting for input...
     Reading input from standard input

     Current dimensions of program PWSCF are:
     Max number of different atomic species (ntypx) = 10
     Max number of k-points (npk) =  40000
     Max angular momentum in pseudopotentials (lmaxx) =  4
     file Si.pbe-n-kjpaw_psl.1.0.0.UPF: wavefunction(s)  3S 3P renormalized

     R & G space division:  proc/nbgrp/npool/nimage =       8
     Subspace diagonalization in iterative solution of the eigenvalue problem:
     a serial algorithm will be used


     Parallelization info
     --------------------
     sticks:   dense  smooth     PW     G-vecs:    dense   smooth      PW
     Min         181      91     27                 4540     1617     266
     Max         182      92     29                 4541     1618     267
     Sum        1453     733    223                36325    12939    2133

     Using Slab Decomposition



     bravais-lattice index     =            2
     lattice parameter (alat)  =      10.2600  a.u.
     unit-cell volume          =     270.0114 (a.u.)^3
     number of atoms/cell      =            2
     number of atomic types    =            1
     number of electrons       =         8.00
     number of Kohn-Sham states=            8
     kinetic-energy cutoff     =      50.0000  Ry
     charge density cutoff     =     400.0000  Ry
     scf convergence threshold =      1.0E-08
     mixing beta               =       0.7000
     number of iterations used =            8  plain     mixing
     Exchange-correlation= SLA  PW   PBX  PBC
                           (   1   4   3   4   0   0   0)

     celldm(1)=  10.260000  celldm(2)=   0.000000  celldm(3)=   0.000000
     celldm(4)=   0.000000  celldm(5)=   0.000000  celldm(6)=   0.000000

     crystal axes: (cart. coord. in units of alat)
               a(1) = (  -0.500000   0.000000   0.500000 )  
               a(2) = (   0.000000   0.500000   0.500000 )  
               a(3) = (  -0.500000   0.500000   0.000000 )  

     reciprocal axes: (cart. coord. in units 2 pi/alat)
               b(1) = ( -1.000000 -1.000000  1.000000 )  
               b(2) = (  1.000000  1.000000  1.000000 )  
               b(3) = ( -1.000000  1.000000 -1.000000 )  


     PseudoPot. # 1 for Si read from file:
     ../pseudo/Si.pbe-n-kjpaw_psl.1.0.0.UPF
     MD5 check sum: c39c59da582df4a0d9f10159256ea34e
     Pseudo is Projector augmented-wave + core cor, Zval =  4.0
     Generated using &quot;atomic&quot; code by A. Dal Corso  v.6.3
     Shape of augmentation charge: PSQ
     Using radial grid of 1141 points,  6 beta functions with: 
                l(1) =   0
                l(2) =   0
                l(3) =   1
                l(4) =   1
                l(5) =   2
                l(6) =   2
     Q(r) pseudized with 0 coefficients 


     atomic species   valence    mass     pseudopotential
     Si                4.00    28.08550     Si( 1.00)

     48 Sym. Ops., with inversion, found (24 have fractional translation)



   Cartesian axes

     site n.     atom                  positions (alat units)
         1        Si     tau(   1) = (   0.0000000   0.0000000   0.0000000  )
         2        Si     tau(   2) = (  -0.2500000   0.2500000   0.2500000  )

     number of k points=    16  Marzari-Vanderbilt smearing, width (Ry)=  0.2000
                       cart. coord. in units 2pi/alat
        k(    1) = (   0.0000000   0.0000000   0.0000000), wk =   0.0092593
        k(    2) = (  -0.1666667   0.1666667  -0.1666667), wk =   0.0740741
        k(    3) = (  -0.3333333   0.3333333  -0.3333333), wk =   0.0740741
        k(    4) = (   0.5000000  -0.5000000   0.5000000), wk =   0.0370370
        k(    5) = (   0.0000000   0.3333333   0.0000000), wk =   0.0555556
        k(    6) = (  -0.1666667   0.5000000  -0.1666667), wk =   0.2222222
        k(    7) = (   0.6666667  -0.3333333   0.6666667), wk =   0.2222222
        k(    8) = (   0.5000000  -0.1666667   0.5000000), wk =   0.2222222
        k(    9) = (   0.3333333   0.0000000   0.3333333), wk =   0.1111111
        k(   10) = (   0.0000000   0.6666667   0.0000000), wk =   0.0555556
        k(   11) = (   0.8333333  -0.1666667   0.8333333), wk =   0.2222222
        k(   12) = (   0.6666667  -0.0000000   0.6666667), wk =   0.1111111
        k(   13) = (   0.0000000  -1.0000000   0.0000000), wk =   0.0277778
        k(   14) = (   0.6666667  -0.3333333   1.0000000), wk =   0.2222222
        k(   15) = (   0.5000000  -0.1666667   0.8333333), wk =   0.2222222
        k(   16) = (  -0.3333333  -1.0000000   0.0000000), wk =   0.1111111

     Dense  grid:    36325 G-vectors     FFT dimensions: (  48,  48,  48)

     Smooth grid:    12939 G-vectors     FFT dimensions: (  36,  36,  36)

     Estimated max dynamical RAM per process >      17.97 MB

     Estimated total dynamical RAM >     143.80 MB

     Initial potential from superposition of free atoms

     starting charge       7.9989, renormalised to       8.0000
     Starting wfcs are    8 randomized atomic wfcs
     Checking if some PAW data can be deallocated... 

     total cpu time spent up to now is        0.6 secs

     Self-consistent Calculation

     iteration #  1     ecut=    50.00 Ry     beta= 0.70
     Davidson diagonalization with overlap
     ethr =  1.00E-02,  avg # of iterations =  3.6

     Threshold (ethr) on eigenvalues was too large:
     Diagonalizing with lowered threshold

     Davidson diagonalization with overlap
     ethr =  5.00E-04,  avg # of iterations =  3.4

     total cpu time spent up to now is        1.0 secs

     total energy              =     -93.41187039 Ry
     estimated scf accuracy    <       0.04357559 Ry

     iteration #  2     ecut=    50.00 Ry     beta= 0.70
     Davidson diagonalization with overlap
     ethr =  5.45E-04,  avg # of iterations =  1.2

     total cpu time spent up to now is        1.1 secs

     total energy              =     -93.41377793 Ry
     estimated scf accuracy    <       0.00174051 Ry

     iteration #  3     ecut=    50.00 Ry     beta= 0.70
     Davidson diagonalization with overlap
     ethr =  2.18E-05,  avg # of iterations =  4.0

     total cpu time spent up to now is        1.3 secs

     total energy              =     -93.41389259 Ry
     estimated scf accuracy    <       0.00004222 Ry

     iteration #  4     ecut=    50.00 Ry     beta= 0.70
     Davidson diagonalization with overlap
     ethr =  5.28E-07,  avg # of iterations =  3.4

     total cpu time spent up to now is        1.5 secs

     total energy              =     -93.41390128 Ry
     estimated scf accuracy    <       0.00000028 Ry

     iteration #  5     ecut=    50.00 Ry     beta= 0.70
     Davidson diagonalization with overlap
     ethr =  3.52E-09,  avg # of iterations =  4.3

     total cpu time spent up to now is        1.7 secs

     total energy              =     -93.41390153 Ry
     estimated scf accuracy    <       0.00000003 Ry

     iteration #  6     ecut=    50.00 Ry     beta= 0.70
     Davidson diagonalization with overlap
     ethr =  4.14E-10,  avg # of iterations =  1.9

     total cpu time spent up to now is        1.8 secs

     End of self-consistent calculation

          k = 0.0000 0.0000 0.0000 (  1639 PWs)   bands (ev):

    -5.8302   6.1186   6.1186   6.1186   8.7203   8.7203   8.7203   9.4803

          k =-0.1667 0.1667-0.1667 (  1591 PWs)   bands (ev):

    -5.4695   3.7467   5.6732   5.6732   8.4933   9.3639   9.3639  11.5746

          k =-0.3333 0.3333-0.3333 (  1609 PWs)   bands (ev):

    -4.4559   0.7985   5.1257   5.1257   7.9012   9.6673   9.6673  14.0209

          k = 0.5000-0.5000 0.5000 (  1622 PWs)   bands (ev):

    -3.5053  -0.8322   4.9277   4.9277   7.6745   9.5046   9.5046  13.8980

          k = 0.0000 0.3333 0.0000 (  1607 PWs)   bands (ev):

    -5.3467   4.0798   4.9378   4.9378   7.8617  10.4473  10.4898  10.4898

          k =-0.1667 0.5000-0.1667 (  1611 PWs)   bands (ev):

    -4.5327   1.6900   4.1397   4.3867   8.1190  10.2198  10.6727  11.2247

          k = 0.6667-0.3333 0.6667 (  1607 PWs)   bands (ev):

    -3.3451  -0.4725   3.3582   4.3554   8.1977  10.2587  10.7808  12.5738

          k = 0.5000-0.1667 0.5000 (  1610 PWs)   bands (ev):

    -3.7285   0.1245   3.0901   4.8309   8.6046  10.2659  10.3902  13.4380

          k = 0.3333 0.0000 0.3333 (  1604 PWs)   bands (ev):

    -4.8822   2.4073   3.7267   5.5576   9.1884   9.7153   9.9849  11.8143

          k = 0.0000 0.6667 0.0000 (  1624 PWs)   bands (ev):

    -3.9286   1.1093   3.7182   3.7182   6.8855   8.1573  13.4028  13.4028

          k = 0.8333-0.1667 0.8333 (  1619 PWs)   bands (ev):

    -2.7673  -0.4427   2.5121   3.5818   7.2240   8.8730  13.6016  13.6184

          k = 0.6667-0.0000 0.6667 (  1612 PWs)   bands (ev):

    -2.5732  -0.6457   1.7351   4.0218   7.7276  11.9481  12.6313  13.2150

          k = 0.0000-1.0000 0.0000 (  1604 PWs)   bands (ev):

    -1.6921  -1.6921   3.2848   3.2848   6.8716   6.8716  16.2456  16.2456

          k = 0.6667-0.3333 1.0000 (  1610 PWs)   bands (ev):

    -3.5447   0.4787   2.5740   3.8424   9.0045   9.8745  10.3840  13.2059

          k = 0.5000-0.1667 0.8333 (  1610 PWs)   bands (ev):

    -2.5634  -0.7168   2.1342   3.3789   9.5109   9.7081  12.2506  12.6724

          k =-0.3333-1.0000 0.0000 (  1618 PWs)   bands (ev):

    -1.5738  -1.5738   2.4999   2.4999   8.9034   8.9034  12.9131  12.9131

     the Fermi energy is     6.1984 ev

!    total energy              =     -93.41390154 Ry
     total all-electron energy =     -1160.105631 Ry
     estimated scf accuracy    <          1.1E-10 Ry
     smearing contrib. (-TS)   =       0.03319161 Ry
     internal energy E=F+TS    =     -93.44709315 Ry

     The total energy is F=E-TS. E is the sum of the following terms:
     one-electron contribution =       5.77284917 Ry
     hartree contribution      =       1.05065150 Ry
     xc contribution           =     -12.28537745 Ry
     ewald contribution        =     -16.80092957 Ry
     one-center paw contrib.   =     -71.18428679 Ry

     convergence has been achieved in   6 iterations

     Writing all to output data dir ./tmp/silicon_50.save/ :
     XML data file, charge density, pseudopotentials, collected wavefunctions

     init_run     :      0.53s CPU      0.55s WALL (       1 calls)
     electrons    :      1.19s CPU      1.19s WALL (       1 calls)

     Called by init_run:
     wfcinit      :      0.03s CPU      0.03s WALL (       1 calls)
     potinit      :      0.22s CPU      0.23s WALL (       1 calls)
     hinit0       :      0.23s CPU      0.23s WALL (       1 calls)

     Called by electrons:
     c_bands      :      0.53s CPU      0.53s WALL (       7 calls)
     sum_band     :      0.20s CPU      0.20s WALL (       7 calls)
     v_of_rho     :      0.04s CPU      0.04s WALL (       7 calls)
     newd         :      0.12s CPU      0.13s WALL (       7 calls)
     PAW_pot      :      0.37s CPU      0.38s WALL (       7 calls)
     mix_rho      :      0.00s CPU      0.00s WALL (       7 calls)

     Called by c_bands:
     init_us_2    :      0.01s CPU      0.01s WALL (     240 calls)
     cegterg      :      0.51s CPU      0.50s WALL (     112 calls)

     Called by *egterg:
     cdiaghg      :      0.02s CPU      0.02s WALL (     445 calls)
     h_psi        :      0.39s CPU      0.39s WALL (     477 calls)
     s_psi        :      0.03s CPU      0.03s WALL (     477 calls)
     g_psi        :      0.00s CPU      0.00s WALL (     349 calls)

     Called by h_psi:
     h_psi:calbec :      0.04s CPU      0.04s WALL (     477 calls)
     vloc_psi     :      0.32s CPU      0.32s WALL (     477 calls)
                                        0.00s GPU  (     477 calls)
     add_vuspsi   :      0.03s CPU      0.03s WALL (     477 calls)

     General routines
     calbec       :      0.06s CPU      0.06s WALL (     589 calls)
     fft          :      0.21s CPU      0.21s WALL (      90 calls)
     ffts         :      0.15s CPU      0.14s WALL (      14 calls)
     fftw         :      0.35s CPU      0.34s WALL (    6144 calls)
     interpolate  :      0.15s CPU      0.15s WALL (       7 calls)

     Parallel routines

     PWSCF        :      1.79s CPU      1.85s WALL


   This run was terminated on:  12:45:17   9Oct2026            

=------------------------------------------------------------------------------=
   JOB DONE.
=------------------------------------------------------------------------------=
