
     Program PWSCF v.7.5 starts on  9Oct2026 at 12:45:23 

     This program is part of the open-source Quantum ESPRESSO suite
     for quantum simulation of materials; please cite
         "P. Giannozzi et al., J. Phys.:Condens. Matter 21 395502 (2009);
         "P. Giannozzi et al., J. Phys.:Condens. Matter 29 465901 (2017);
         "P. Giannozzi et al., J. Chem. Phys. 152 154105 (2020);
          URL http://www.quantum-espresso.org", 
     in publications or presentations arising from this work. More details at
     http://www.quantum-espresso.org/quote

     Parallel version (MPI), running on     8 processors

     MPI processes distributed on     1 nodes
     6557 MiB available memory on the printing compute node when the environment starts

     Waiting for input...
     Reading input from standard input

     Current dimensions of program PWSCF are:
     Max number of different atomic species (ntypx) = 10
     Max number of k-points (npk) =  40000
     Max angular momentum in pseudopotentials (lmaxx) =  4
     file Si.pbe-n-kjpaw_psl.1.0.0.UPF: wavefunction(s)  3S 3P renormalized

     R & G space division:  proc/nbgrp/npool/nimage =       8
     Subspace diagonalization in iterative solution of the eigenvalue problem:
     a serial algorithm will be used


     Parallelization info
     --------------------
     sticks:   dense  smooth     PW     G-vecs:    dense   smooth      PW
     Min         144      72     23                 3276     1155     204
     Max         145      73     24                 3279     1158     206
     Sum        1159     583    187                26229     9257    1639

     Using Slab Decomposition



     bravais-lattice index     =            2
     lattice parameter (alat)  =      10.2600  a.u.
     unit-cell volume          =     270.0114 (a.u.)^3
     number of atoms/cell      =            2
     number of atomic types    =            1
     number of electrons       =         8.00
     number of Kohn-Sham states=            8
     kinetic-energy cutoff     =      40.0000  Ry
     charge density cutoff     =     320.0000  Ry
     scf convergence threshold =      1.0E-08
     mixing beta               =       0.7000
     number of iterations used =            8  plain     mixing
     Exchange-correlation= SLA  PW   PBX  PBC
                           (   1   4   3   4   0   0   0)

     celldm(1)=  10.260000  celldm(2)=   0.000000  celldm(3)=   0.000000
     celldm(4)=   0.000000  celldm(5)=   0.000000  celldm(6)=   0.000000

     crystal axes: (cart. coord. in units of alat)
               a(1) = (  -0.500000   0.000000   0.500000 )  
               a(2) = (   0.000000   0.500000   0.500000 )  
               a(3) = (  -0.500000   0.500000   0.000000 )  

     reciprocal axes: (cart. coord. in units 2 pi/alat)
               b(1) = ( -1.000000 -1.000000  1.000000 )  
               b(2) = (  1.000000  1.000000  1.000000 )  
               b(3) = ( -1.000000  1.000000 -1.000000 )  


     PseudoPot. # 1 for Si read from file:
     ../pseudo/Si.pbe-n-kjpaw_psl.1.0.0.UPF
     MD5 check sum: c39c59da582df4a0d9f10159256ea34e
     Pseudo is Projector augmented-wave + core cor, Zval =  4.0
     Generated using &quot;atomic&quot; code by A. Dal Corso  v.6.3
     Shape of augmentation charge: PSQ
     Using radial grid of 1141 points,  6 beta functions with: 
                l(1) =   0
                l(2) =   0
                l(3) =   1
                l(4) =   1
                l(5) =   2
                l(6) =   2
     Q(r) pseudized with 0 coefficients 


     atomic species   valence    mass     pseudopotential
     Si                4.00    28.08550     Si( 1.00)

     48 Sym. Ops., with inversion, found (24 have fractional translation)



   Cartesian axes

     site n.     atom                  positions (alat units)
         1        Si     tau(   1) = (   0.0000000   0.0000000   0.0000000  )
         2        Si     tau(   2) = (  -0.2500000   0.2500000   0.2500000  )

     number of k points=    16  Marzari-Vanderbilt smearing, width (Ry)=  0.2000
                       cart. coord. in units 2pi/alat
        k(    1) = (   0.0000000   0.0000000   0.0000000), wk =   0.0092593
        k(    2) = (  -0.1666667   0.1666667  -0.1666667), wk =   0.0740741
        k(    3) = (  -0.3333333   0.3333333  -0.3333333), wk =   0.0740741
        k(    4) = (   0.5000000  -0.5000000   0.5000000), wk =   0.0370370
        k(    5) = (   0.0000000   0.3333333   0.0000000), wk =   0.0555556
        k(    6) = (  -0.1666667   0.5000000  -0.1666667), wk =   0.2222222
        k(    7) = (   0.6666667  -0.3333333   0.6666667), wk =   0.2222222
        k(    8) = (   0.5000000  -0.1666667   0.5000000), wk =   0.2222222
        k(    9) = (   0.3333333   0.0000000   0.3333333), wk =   0.1111111
        k(   10) = (   0.0000000   0.6666667   0.0000000), wk =   0.0555556
        k(   11) = (   0.8333333  -0.1666667   0.8333333), wk =   0.2222222
        k(   12) = (   0.6666667  -0.0000000   0.6666667), wk =   0.1111111
        k(   13) = (   0.0000000  -1.0000000   0.0000000), wk =   0.0277778
        k(   14) = (   0.6666667  -0.3333333   1.0000000), wk =   0.2222222
        k(   15) = (   0.5000000  -0.1666667   0.8333333), wk =   0.2222222
        k(   16) = (  -0.3333333  -1.0000000   0.0000000), wk =   0.1111111

     Dense  grid:    26229 G-vectors     FFT dimensions: (  48,  48,  48)

     Smooth grid:     9257 G-vectors     FFT dimensions: (  32,  32,  32)

     Estimated max dynamical RAM per process >      13.51 MB

     Estimated total dynamical RAM >     108.05 MB

     Initial potential from superposition of free atoms

     starting charge       7.9989, renormalised to       8.0000
     Starting wfcs are    8 randomized atomic wfcs
     Checking if some PAW data can be deallocated... 

     total cpu time spent up to now is        0.5 secs

     Self-consistent Calculation

     iteration #  1     ecut=    40.00 Ry     beta= 0.70
     Davidson diagonalization with overlap
     ethr =  1.00E-02,  avg # of iterations =  3.6

     Threshold (ethr) on eigenvalues was too large:
     Diagonalizing with lowered threshold

     Davidson diagonalization with overlap
     ethr =  5.00E-04,  avg # of iterations =  3.4

     total cpu time spent up to now is        0.8 secs

     total energy              =     -93.41176645 Ry
     estimated scf accuracy    <       0.04365296 Ry

     iteration #  2     ecut=    40.00 Ry     beta= 0.70
     Davidson diagonalization with overlap
     ethr =  5.46E-04,  avg # of iterations =  1.2

     total cpu time spent up to now is        0.9 secs

     total energy              =     -93.41368608 Ry
     estimated scf accuracy    <       0.00173323 Ry

     iteration #  3     ecut=    40.00 Ry     beta= 0.70
     Davidson diagonalization with overlap
     ethr =  2.17E-05,  avg # of iterations =  3.9

     total cpu time spent up to now is        1.0 secs

     total energy              =     -93.41379860 Ry
     estimated scf accuracy    <       0.00004228 Ry

     iteration #  4     ecut=    40.00 Ry     beta= 0.70
     Davidson diagonalization with overlap
     ethr =  5.28E-07,  avg # of iterations =  3.8

     total cpu time spent up to now is        1.2 secs

     total energy              =     -93.41380720 Ry
     estimated scf accuracy    <       0.00000038 Ry

     iteration #  5     ecut=    40.00 Ry     beta= 0.70
     Davidson diagonalization with overlap
     ethr =  4.69E-09,  avg # of iterations =  3.9

     total cpu time spent up to now is        1.3 secs

     total energy              =     -93.41380747 Ry
     estimated scf accuracy    <       0.00000005 Ry

     iteration #  6     ecut=    40.00 Ry     beta= 0.70
     Davidson diagonalization with overlap
     ethr =  6.76E-10,  avg # of iterations =  2.3

     total cpu time spent up to now is        1.4 secs

     End of self-consistent calculation

          k = 0.0000 0.0000 0.0000 (  1139 PWs)   bands (ev):

    -5.8301   6.1187   6.1187   6.1187   8.7205   8.7205   8.7205   9.4803

          k =-0.1667 0.1667-0.1667 (  1167 PWs)   bands (ev):

    -5.4694   3.7468   5.6733   5.6733   8.4934   9.3640   9.3640  11.5746

          k =-0.3333 0.3333-0.3333 (  1149 PWs)   bands (ev):

    -4.4558   0.7986   5.1257   5.1257   7.9012   9.6675   9.6675  14.0209

          k = 0.5000-0.5000 0.5000 (  1158 PWs)   bands (ev):

    -3.5052  -0.8321   4.9278   4.9278   7.6746   9.5048   9.5048  13.8981

          k = 0.0000 0.3333 0.0000 (  1162 PWs)   bands (ev):

    -5.3466   4.0799   4.9379   4.9379   7.8619  10.4474  10.4899  10.4899

          k =-0.1667 0.5000-0.1667 (  1151 PWs)   bands (ev):

    -4.5326   1.6901   4.1398   4.3868   8.1191  10.2199  10.6728  11.2248

          k = 0.6667-0.3333 0.6667 (  1153 PWs)   bands (ev):

    -3.3450  -0.4724   3.3582   4.3555   8.1978  10.2588  10.7809  12.5739

          k = 0.5000-0.1667 0.5000 (  1156 PWs)   bands (ev):

    -3.7284   0.1246   3.0902   4.8310   8.6047  10.2660  10.3904  13.4371

          k = 0.3333 0.0000 0.3333 (  1147 PWs)   bands (ev):

    -4.8821   2.4074   3.7268   5.5577   9.1885   9.7155   9.9850  11.8144

          k = 0.0000 0.6667 0.0000 (  1150 PWs)   bands (ev):

    -3.9285   1.1094   3.7183   3.7183   6.8856   8.1575  13.4030  13.4030

          k = 0.8333-0.1667 0.8333 (  1149 PWs)   bands (ev):

    -2.7671  -0.4426   2.5122   3.5819   7.2241   8.8732  13.6019  13.6185

          k = 0.6667-0.0000 0.6667 (  1141 PWs)   bands (ev):

    -2.5731  -0.6456   1.7352   4.0219   7.7278  11.9482  12.6315  13.2152

          k = 0.0000-1.0000 0.0000 (  1162 PWs)   bands (ev):

    -1.6920  -1.6920   3.2849   3.2849   6.8717   6.8717  16.2458  16.2458

          k = 0.6667-0.3333 1.0000 (  1151 PWs)   bands (ev):

    -3.5446   0.4788   2.5740   3.8424   9.0046   9.8747  10.3841  13.2061

          k = 0.5000-0.1667 0.8333 (  1152 PWs)   bands (ev):

    -2.5633  -0.7167   2.1343   3.3790   9.5111   9.7082  12.2507  12.6725

          k =-0.3333-1.0000 0.0000 (  1154 PWs)   bands (ev):

    -1.5737  -1.5737   2.5000   2.5000   8.9035   8.9035  12.9133  12.9133

     the Fermi energy is     6.1985 ev

!    total energy              =     -93.41380748 Ry
     total all-electron energy =     -1160.105537 Ry
     estimated scf accuracy    <          7.3E-11 Ry
     smearing contrib. (-TS)   =       0.03319293 Ry
     internal energy E=F+TS    =     -93.44700041 Ry

     The total energy is F=E-TS. E is the sum of the following terms:
     one-electron contribution =       5.77291267 Ry
     hartree contribution      =       1.05067572 Ry
     xc contribution           =     -12.28535335 Ry
     ewald contribution        =     -16.80092957 Ry
     one-center paw contrib.   =     -71.18430588 Ry

     convergence has been achieved in   6 iterations

     Writing all to output data dir ./tmp/silicon_40.save/ :
     XML data file, charge density, pseudopotentials, collected wavefunctions

     init_run     :      0.42s CPU      0.45s WALL (       1 calls)
     electrons    :      0.88s CPU      0.88s WALL (       1 calls)

     Called by init_run:
     wfcinit      :      0.03s CPU      0.03s WALL (       1 calls)
     potinit      :      0.15s CPU      0.16s WALL (       1 calls)
     hinit0       :      0.22s CPU      0.22s WALL (       1 calls)

     Called by electrons:
     c_bands      :      0.32s CPU      0.32s WALL (       7 calls)
     sum_band     :      0.14s CPU      0.14s WALL (       7 calls)
     v_of_rho     :      0.04s CPU      0.04s WALL (       7 calls)
     newd         :      0.08s CPU      0.09s WALL (       7 calls)
     PAW_pot      :      0.36s CPU      0.38s WALL (       7 calls)
     mix_rho      :      0.00s CPU      0.00s WALL (       7 calls)

     Called by c_bands:
     init_us_2    :      0.01s CPU      0.01s WALL (     240 calls)
     cegterg      :      0.30s CPU      0.30s WALL (     112 calls)

     Called by *egterg:
     cdiaghg      :      0.02s CPU      0.02s WALL (     450 calls)
     h_psi        :      0.22s CPU      0.22s WALL (     482 calls)
     s_psi        :      0.02s CPU      0.02s WALL (     482 calls)
     g_psi        :      0.00s CPU      0.00s WALL (     354 calls)

     Called by h_psi:
     h_psi:calbec :      0.03s CPU      0.03s WALL (     482 calls)
     vloc_psi     :      0.16s CPU      0.16s WALL (     482 calls)
                                        0.00s GPU  (     482 calls)
     add_vuspsi   :      0.02s CPU      0.02s WALL (     482 calls)

     General routines
     calbec       :      0.04s CPU      0.04s WALL (     594 calls)
     fft          :      0.21s CPU      0.21s WALL (      90 calls)
     ffts         :      0.08s CPU      0.08s WALL (      14 calls)
     fftw         :      0.17s CPU      0.17s WALL (    6080 calls)
     interpolate  :      0.08s CPU      0.08s WALL (       7 calls)

     Parallel routines

     PWSCF        :      1.37s CPU      1.45s WALL


   This run was terminated on:  12:45:25   9Oct2026            

=------------------------------------------------------------------------------=
   JOB DONE.
=------------------------------------------------------------------------------=
