
     Program PWSCF v.7.5 starts on 14Aug2026 at 20:57:30 

     This program is part of the open-source Quantum ESPRESSO suite
     for quantum simulation of materials; please cite
         "P. Giannozzi et al., J. Phys.:Condens. Matter 21 395502 (2009);
         "P. Giannozzi et al., J. Phys.:Condens. Matter 29 465901 (2017);
         "P. Giannozzi et al., J. Chem. Phys. 152 154105 (2020);
          URL http://www.quantum-espresso.org", 
     in publications or presentations arising from this work. More details at
     http://www.quantum-espresso.org/quote

     Parallel version (MPI), running on     8 processors

     MPI processes distributed on     1 nodes
     6829 MiB available memory on the printing compute node when the environment starts

     Waiting for input...
     Reading input from standard input

     Current dimensions of program PWSCF are:
     Max number of different atomic species (ntypx) = 10
     Max number of k-points (npk) =  40000
     Max angular momentum in pseudopotentials (lmaxx) =  4
     file Si.pbe-n-kjpaw_psl.1.0.0.UPF: wavefunction(s)  3S 3P renormalized

     R & G space division:  proc/nbgrp/npool/nimage =       8
     Subspace diagonalization in iterative solution of the eigenvalue problem:
     a serial algorithm will be used


     Parallelization info
     --------------------
     sticks:   dense  smooth     PW     G-vecs:    dense   smooth      PW
     Min         107     107     31                 2107     2107     340
     Max         108     108     32                 2110     2110     344
     Sum         859     859    253                16865    16865    2741

     Using Slab Decomposition



     bravais-lattice index     =            2
     lattice parameter (alat)  =      10.2600  a.u.
     unit-cell volume          =     270.0114 (a.u.)^3
     number of atoms/cell      =            2
     number of atomic types    =            1
     number of electrons       =         8.00
     number of Kohn-Sham states=            8
     kinetic-energy cutoff     =      60.0000  Ry
     charge density cutoff     =     240.0000  Ry
     scf convergence threshold =      1.0E-08
     mixing beta               =       0.7000
     number of iterations used =            8  plain     mixing
     Exchange-correlation= SLA  PW   PBX  PBC
                           (   1   4   3   4   0   0   0)

     celldm(1)=  10.260000  celldm(2)=   0.000000  celldm(3)=   0.000000
     celldm(4)=   0.000000  celldm(5)=   0.000000  celldm(6)=   0.000000

     crystal axes: (cart. coord. in units of alat)
               a(1) = (  -0.500000   0.000000   0.500000 )  
               a(2) = (   0.000000   0.500000   0.500000 )  
               a(3) = (  -0.500000   0.500000   0.000000 )  

     reciprocal axes: (cart. coord. in units 2 pi/alat)
               b(1) = ( -1.000000 -1.000000  1.000000 )  
               b(2) = (  1.000000  1.000000  1.000000 )  
               b(3) = ( -1.000000  1.000000 -1.000000 )  


     PseudoPot. # 1 for Si read from file:
     ./pseudo/Si.pbe-n-kjpaw_psl.1.0.0.UPF
     MD5 check sum: c39c59da582df4a0d9f10159256ea34e
     Pseudo is Projector augmented-wave + core cor, Zval =  4.0
     Generated using &quot;atomic&quot; code by A. Dal Corso  v.6.3
     Shape of augmentation charge: PSQ
     Using radial grid of 1141 points,  6 beta functions with: 
                l(1) =   0
                l(2) =   0
                l(3) =   1
                l(4) =   1
                l(5) =   2
                l(6) =   2
     Q(r) pseudized with 0 coefficients 


     atomic species   valence    mass     pseudopotential
     Si                4.00    28.08550     Si( 1.00)

     48 Sym. Ops., with inversion, found (24 have fractional translation)



   Cartesian axes

     site n.     atom                  positions (alat units)
         1        Si     tau(   1) = (   0.0000000   0.0000000   0.0000000  )
         2        Si     tau(   2) = (  -0.2500000   0.2500000   0.2500000  )

     number of k points=    16  Marzari-Vanderbilt smearing, width (Ry)=  0.2000
                       cart. coord. in units 2pi/alat
        k(    1) = (   0.0000000   0.0000000   0.0000000), wk =   0.0092593
        k(    2) = (  -0.1666667   0.1666667  -0.1666667), wk =   0.0740741
        k(    3) = (  -0.3333333   0.3333333  -0.3333333), wk =   0.0740741
        k(    4) = (   0.5000000  -0.5000000   0.5000000), wk =   0.0370370
        k(    5) = (   0.0000000   0.3333333   0.0000000), wk =   0.0555556
        k(    6) = (  -0.1666667   0.5000000  -0.1666667), wk =   0.2222222
        k(    7) = (   0.6666667  -0.3333333   0.6666667), wk =   0.2222222
        k(    8) = (   0.5000000  -0.1666667   0.5000000), wk =   0.2222222
        k(    9) = (   0.3333333   0.0000000   0.3333333), wk =   0.1111111
        k(   10) = (   0.0000000   0.6666667   0.0000000), wk =   0.0555556
        k(   11) = (   0.8333333  -0.1666667   0.8333333), wk =   0.2222222
        k(   12) = (   0.6666667  -0.0000000   0.6666667), wk =   0.1111111
        k(   13) = (   0.0000000  -1.0000000   0.0000000), wk =   0.0277778
        k(   14) = (   0.6666667  -0.3333333   1.0000000), wk =   0.2222222
        k(   15) = (   0.5000000  -0.1666667   0.8333333), wk =   0.2222222
        k(   16) = (  -0.3333333  -1.0000000   0.0000000), wk =   0.1111111

     Dense  grid:    16865 G-vectors     FFT dimensions: (  36,  36,  36)

     Estimated max dynamical RAM per process >       9.31 MB

     Estimated total dynamical RAM >      74.44 MB

     Initial potential from superposition of free atoms

     starting charge       7.9989, renormalised to       8.0000
     Starting wfcs are    8 randomized atomic wfcs
     Checking if some PAW data can be deallocated... 

     total cpu time spent up to now is        0.4 secs

     Self-consistent Calculation

     iteration #  1     ecut=    60.00 Ry     beta= 0.70
     Davidson diagonalization with overlap
     ethr =  1.00E-02,  avg # of iterations =  3.6

     Threshold (ethr) on eigenvalues was too large:
     Diagonalizing with lowered threshold

     Davidson diagonalization with overlap
     ethr =  5.01E-04,  avg # of iterations =  3.3

     total cpu time spent up to now is        0.7 secs

     total energy              =     -93.41187449 Ry
     estimated scf accuracy    <       0.04351464 Ry

     iteration #  2     ecut=    60.00 Ry     beta= 0.70
     Davidson diagonalization with overlap
     ethr =  5.44E-04,  avg # of iterations =  1.2

     total cpu time spent up to now is        0.9 secs

     total energy              =     -93.41378378 Ry
     estimated scf accuracy    <       0.00174669 Ry

     iteration #  3     ecut=    60.00 Ry     beta= 0.70
     Davidson diagonalization with overlap
     ethr =  2.18E-05,  avg # of iterations =  3.8

     total cpu time spent up to now is        1.1 secs

     total energy              =     -93.41390621 Ry
     estimated scf accuracy    <       0.00004227 Ry

     iteration #  4     ecut=    60.00 Ry     beta= 0.70
     Davidson diagonalization with overlap
     ethr =  5.28E-07,  avg # of iterations =  4.1

     total cpu time spent up to now is        1.2 secs

     total energy              =     -93.41391430 Ry
     estimated scf accuracy    <       0.00000025 Ry

     iteration #  5     ecut=    60.00 Ry     beta= 0.70
     Davidson diagonalization with overlap
     ethr =  3.18E-09,  avg # of iterations =  4.4

     total cpu time spent up to now is        1.4 secs

     total energy              =     -93.41391454 Ry
     estimated scf accuracy    <       0.00000003 Ry

     iteration #  6     ecut=    60.00 Ry     beta= 0.70
     Davidson diagonalization with overlap
     ethr =  3.61E-10,  avg # of iterations =  2.1

     total cpu time spent up to now is        1.6 secs

     End of self-consistent calculation

          k = 0.0000 0.0000 0.0000 (  2085 PWs)   bands (ev):

    -5.8301   6.1187   6.1187   6.1187   8.7203   8.7203   8.7203   9.4804

          k =-0.1667 0.1667-0.1667 (  2112 PWs)   bands (ev):

    -5.4694   3.7468   5.6733   5.6733   8.4934   9.3638   9.3638  11.5747

          k =-0.3333 0.3333-0.3333 (  2102 PWs)   bands (ev):

    -4.4558   0.7985   5.1257   5.1257   7.9012   9.6673   9.6673  14.0208

          k = 0.5000-0.5000 0.5000 (  2120 PWs)   bands (ev):

    -3.5052  -0.8321   4.9278   4.9278   7.6746   9.5046   9.5046  13.8980

          k = 0.0000 0.3333 0.0000 (  2105 PWs)   bands (ev):

    -5.3466   4.0799   4.9379   4.9379   7.8617  10.4473  10.4898  10.4898

          k =-0.1667 0.5000-0.1667 (  2106 PWs)   bands (ev):

    -4.5326   1.6901   4.1398   4.3868   8.1190  10.2198  10.6727  11.2246

          k = 0.6667-0.3333 0.6667 (  2120 PWs)   bands (ev):

    -3.3450  -0.4724   3.3582   4.3554   8.1977  10.2587  10.7807  12.5737

          k = 0.5000-0.1667 0.5000 (  2122 PWs)   bands (ev):

    -3.7284   0.1246   3.0902   4.8310   8.6046  10.2659  10.3902  13.4369

          k = 0.3333 0.0000 0.3333 (  2109 PWs)   bands (ev):

    -4.8821   2.4074   3.7268   5.5577   9.1884   9.7153   9.9849  11.8144

          k = 0.0000 0.6667 0.0000 (  2108 PWs)   bands (ev):

    -3.9285   1.1095   3.7183   3.7183   6.8855   8.1573  13.4028  13.4028

          k = 0.8333-0.1667 0.8333 (  2126 PWs)   bands (ev):

    -2.7672  -0.4426   2.5122   3.5819   7.2240   8.8730  13.6016  13.6184

          k = 0.6667-0.0000 0.6667 (  2121 PWs)   bands (ev):

    -2.5731  -0.6456   1.7352   4.0218   7.7276  11.9481  12.6313  13.2151

          k = 0.0000-1.0000 0.0000 (  2100 PWs)   bands (ev):

    -1.6920  -1.6920   3.2849   3.2849   6.8716   6.8716  16.2456  16.2456

          k = 0.6667-0.3333 1.0000 (  2113 PWs)   bands (ev):

    -3.5446   0.4788   2.5740   3.8424   9.0045   9.8745  10.3840  13.2059

          k = 0.5000-0.1667 0.8333 (  2122 PWs)   bands (ev):

    -2.5633  -0.7167   2.1343   3.3789   9.5109   9.7081  12.2506  12.6724

          k =-0.3333-1.0000 0.0000 (  2138 PWs)   bands (ev):

    -1.5737  -1.5737   2.4999   2.4999   8.9034   8.9034  12.9131  12.9131

     the Fermi energy is     6.1984 ev

!    total energy              =     -93.41391454 Ry
     total all-electron energy =     -1160.105644 Ry
     estimated scf accuracy    <          4.8E-11 Ry
     smearing contrib. (-TS)   =       0.03319009 Ry
     internal energy E=F+TS    =     -93.44710463 Ry

     The total energy is F=E-TS. E is the sum of the following terms:
     one-electron contribution =       5.77285179 Ry
     hartree contribution      =       1.05062963 Ry
     xc contribution           =     -12.28536593 Ry
     ewald contribution        =     -16.80092958 Ry
     one-center paw contrib.   =     -71.18429055 Ry

     convergence has been achieved in   6 iterations

     Writing all to output data dir ./tmp/silicon.save/ :
     XML data file, charge density, pseudopotentials, collected wavefunctions

     init_run     :      0.30s CPU      0.33s WALL (       1 calls)
     electrons    :      1.12s CPU      1.17s WALL (       1 calls)

     Called by init_run:
     wfcinit      :      0.04s CPU      0.04s WALL (       1 calls)
     potinit      :      0.05s CPU      0.07s WALL (       1 calls)
     hinit0       :      0.18s CPU      0.18s WALL (       1 calls)

     Called by electrons:
     c_bands      :      0.60s CPU      0.63s WALL (       7 calls)
     sum_band     :      0.15s CPU      0.15s WALL (       7 calls)
     v_of_rho     :      0.02s CPU      0.02s WALL (       7 calls)
     newd         :      0.06s CPU      0.06s WALL (       7 calls)
     PAW_pot      :      0.36s CPU      0.38s WALL (       7 calls)
     mix_rho      :      0.00s CPU      0.00s WALL (       7 calls)

     Called by c_bands:
     init_us_2    :      0.01s CPU      0.01s WALL (     240 calls)
     cegterg      :      0.56s CPU      0.59s WALL (     112 calls)

     Called by *egterg:
     cdiaghg      :      0.02s CPU      0.02s WALL (     456 calls)
     h_psi        :      0.42s CPU      0.45s WALL (     488 calls)
     s_psi        :      0.04s CPU      0.04s WALL (     488 calls)
     g_psi        :      0.00s CPU      0.00s WALL (     360 calls)

     Called by h_psi:
     h_psi:calbec :      0.05s CPU      0.05s WALL (     488 calls)
     vloc_psi     :      0.33s CPU      0.34s WALL (     488 calls)
                                        0.00s GPU  (     488 calls)
     add_vuspsi   :      0.04s CPU      0.04s WALL (     488 calls)

     General routines
     calbec       :      0.07s CPU      0.07s WALL (     600 calls)
     fft          :      0.15s CPU      0.16s WALL (      78 calls)
     ffts         :      0.00s CPU      0.00s WALL (       7 calls)
     fftw         :      0.35s CPU      0.37s WALL (    6206 calls)

     Parallel routines

     PWSCF        :      1.50s CPU      1.61s WALL


   This run was terminated on:  20:57:31  14Aug2026            

=------------------------------------------------------------------------------=
   JOB DONE.
=------------------------------------------------------------------------------=
